SAT
-1 -100 -99 -98 -97 13 39 -96 -95 -78 77 21 10 -89 24 -76 -94 93 58 -75 32 72 88 25 -86 48 -55 34 -64 50 56 -36 -54 69 -79 28 82 12 -80 22 -27 2 -61 70 -87 6 -31 -7 -23 -73 71 42 -33 -92 5 -14 -35 84 -20 -57 -85 -47 44 46 -65 -30 52 37 90 -60 17 67 -59 9 38 -11 53 62 -26 -83 -19 -49 3 -63 -51 -68 -81 -8 15 -45 -43 -74 40 29 -4 -16 18 -91 -41 -66 0
